
Gurobi 9.5.0 (win64) logging started Tue Dec  7 12:39:46 2021

Set parameter LogFile to value "../results/logs/log_2021_12_07_12_26.csv_9_15.log"
Set parameter Method to value 3
Gurobi Optimizer version 9.5.0 build v9.5.0rc5 (win64)
Thread count: 6 physical cores, 12 logical processors, using up to 12 threads
Optimize a model with 238 rows, 9882 columns and 8569 nonzeros
Model fingerprint: 0xf51d85fc
Variable types: 4941 continuous, 4941 integer (4941 binary)
Coefficient statistics:
  Matrix range     [1e+00, 9e+00]
  Objective range  [1e+00, 1e+00]
  Bounds range     [1e+00, 1e+00]
  RHS range        [1e+00, 2e+01]
Found heuristic solution: objective -0.0000000
Presolve removed 171 rows and 9770 columns
Presolve time: 0.01s
Presolved: 67 rows, 112 columns, 400 nonzeros
Extracted 24 lazy constraints
Variable types: 60 continuous, 52 integer (52 binary)

Root relaxation: objective 3.255364e+01, 80 iterations, 0.00 seconds (0.00 work units)

    Nodes    |    Current Node    |     Objective Bounds      |     Work
 Expl Unexpl |  Obj  Depth IntInf | Incumbent    BestBd   Gap | It/Node Time

     0     0   32.55364    0   18   -0.00000   32.55364      -     -    0s
H    0     0                       2.0000000   32.55364  1528%     -    0s
     0     0   12.57975    0   11    2.00000   12.57975   529%     -    0s
     0     0   10.97510    0   17    2.00000   10.97510   449%     -    0s
     0     0   10.84977    0    9    2.00000   10.84977   442%     -    0s
H    0     0                       9.0000000   10.37153  15.2%     -    0s
     0     0   10.37153    0   11    9.00000   10.37153  15.2%     -    0s
     0     0   10.32855    0   11    9.00000   10.32855  14.8%     -    0s
     0     0   10.27679    0    9    9.00000   10.27679  14.2%     -    0s
     0     0   10.27679    0    6    9.00000   10.27679  14.2%     -    0s
     0     0   10.27679    0    7    9.00000   10.27679  14.2%     -    0s
     0     0    9.00000    0    8    9.00000    9.00000  0.00%     -    0s

Cutting planes:
  Gomory: 2
  MIR: 11
  RLT: 1
  Relax-and-lift: 1

Explored 1 nodes (285 simplex iterations) in 0.04 seconds (0.01 work units)
Thread count was 12 (of 12 available processors)

Solution count 4: 9 4 2 -0 

Optimal solution found (tolerance 1.00e-04)
Best objective 9.000000000000e+00, best bound 9.000000000000e+00, gap 0.0000%
